; benchmark generated from python API
(set-info :status unknown)
(declare-fun S_4 () Real)
(declare-fun L_1 () Real)
(declare-fun A_1 () Real)
(declare-fun A_2 () Real)
(declare-fun A_4 () Real)
(declare-fun Q_4 () Real)
(declare-fun A_3 () Real)
(declare-fun A_0 () Real)
(declare-fun S_3 () Real)
(declare-fun S_2 () Real)
(declare-fun S_1 () Real)
(declare-fun S_0 () Real)
(declare-fun L_0 () Real)
(declare-fun a () Real)
(assert
 (exists ((I_0 Real) (I_1 Real) (I_2 Real) (I_3 Real) (I_4 Real) (L_2 Real) (L_3 Real) (L_4 Real) (C Real) (B Real) )(let ((?x85 (- A_1 L_1)))
 (let (($x124 (<= ?x85 S_4)))
 (let (($x122 (>= A_4 A_3)))
 (let (($x121 (>= A_3 A_2)))
 (let (($x120 (>= A_2 A_1)))
 (let (($x119 (>= A_1 A_0)))
 (let (($x117 (>= S_4 S_3)))
 (let (($x114 (>= S_3 S_2)))
 (let (($x111 (>= S_2 S_1)))
 (let (($x108 (>= S_1 S_0)))
 (let ((?x140 (- A_4 L_4)))
 (let ((?x152 (* C 1.0)))
 (let ((?x155 (+ I_3 ?x152)))
 (let (($x163 (= I_3 (ite (< (+ I_2 ?x152) (- A_3 L_3)) (+ I_2 ?x152) (- A_3 L_3)))))
 (let (($x167 (= I_2 (ite (< (+ I_1 ?x152) (- A_2 L_2)) (+ I_1 ?x152) (- A_2 L_2)))))
 (let (($x172 (= L_4 L_3)))
 (let (($x177 (=> (not (> (- (- A_4 L_3) I_4) B)) $x172)))
 (let (($x175 (> (- (- A_4 L_3) I_4) B)))
 (let (($x181 (=> $x175 (= L_4 (- (- A_4 I_4) B)))))
 (let (($x182 (= L_3 L_2)))
 (let (($x187 (=> (not (> (- (- A_3 L_2) I_3) B)) $x182)))
 (let (($x185 (> (- (- A_3 L_2) I_3) B)))
 (let (($x191 (=> $x185 (= L_3 (- (- A_3 I_3) B)))))
 (let (($x192 (= L_2 L_1)))
 (let (($x196 (=> (not (> (- (- A_2 L_1) I_2) B)) $x192)))
 (let (($x194 (> (- (- A_2 L_1) I_2) B)))
 (let (($x200 (=> $x194 (= L_2 (- (- A_2 I_2) B)))))
 (let (($x51 (= L_1 L_0)))
 (let (($x204 (=> (not (> (- (- A_1 L_0) I_1) B)) $x51)))
 (let (($x202 (> (- (- A_1 L_0) I_1) B)))
 (let (($x208 (=> $x202 (= L_1 (- (- A_1 I_1) B)))))
 (let (($x42 (= a 1.0)))
 (let (($x34 (>= L_0 0.0)))
 (and $x34 (<= I_0 (- A_0 L_0)) (>= C (* 5.0 a)) (>= B (* 5.0 a)) $x42 $x208 $x204 $x200 $x196 $x191 $x187 $x181 $x177 $x208 $x204 $x200 $x196 $x191 $x187 $x181 $x177 (= I_1 (ite (< (+ I_0 ?x152) ?x85) (+ I_0 ?x152) ?x85)) $x167 $x163 (= I_4 (ite (< ?x155 ?x140) ?x155 ?x140)) (>= S_0 (- I_0 ?x152)) (<= S_0 I_0) (>= S_1 I_0) $x108 (<= S_1 I_1) (>= S_2 I_1) $x111 (<= S_2 I_2) (>= S_3 I_2) $x114 (<= S_3 I_3) (>= S_4 I_3) $x117 (<= S_4 I_4) $x119 $x120 $x121 $x122 (= Q_4 (- ?x140 I_4)) (> (- A_2 L_2) S_4) $x124)))))))))))))))))))))))))))))))))))
 )
(check-sat)
